networks/zoo_24_79/zoo_24_79-lower.sol
<?xml version = "1.0" encoding="UTF-8" standalone="yes"?>
<CPLEXSolution version="1.2">
 <header
   problemName="networks/zoo_24_79/zoo_24_79-lower.lp"
   solutionName="incumbent"
   solutionIndex="-1"
   objectiveValue="12"
   solutionTypeValue="3"
   solutionTypeString="primal"
   solutionStatusValue="101"
   solutionStatusString="integer optimal solution"
   solutionMethodString="mip"
   primalFeasible="1"
   dualFeasible="1"
   MIPNodes="0"
   MIPIterations="163"
   writeLevel="3"/>
 <quality
   epInt="1.0000000000000001e-05"
   epRHS="9.9999999999999995e-07"
   maxIntInfeas="0"
   maxPrimalInfeas="0"
   maxX="1"
   maxSlack="1"/>
 <variables>
  <variable name="Y(1,2)" index="1" value="1"/>
  <variable name="Y(7,5)" index="148" value="1"/>
  <variable name="Y(15,6)" index="341" value="1"/>
  <variable name="Y(19,10)" index="441" value="1"/>
  <variable name="Y(27,8)" index="631" value="1"/>
  <variable name="Y(36,9)" index="848" value="1"/>
  <variable name="Y(40,4)" index="939" value="1"/>
  <variable name="Y(45,11)" index="1066" value="1"/>
  <variable name="Y(48,12)" index="1139" value="1"/>
  <variable name="Y(49,1)" index="1152" value="1"/>
  <variable name="Y(64,7)" index="1518" value="1"/>
  <variable name="Y(71,3)" index="1682" value="1"/>
  <variable name="X(1,4,1)" index="1896" value="1"/>
  <variable name="X(1,13,49)" index="2023" value="1"/>
  <variable name="X(2,4,7)" index="2060" value="1"/>
  <variable name="X(2,14,1)" index="2133" value="1"/>
  <variable name="X(3,4,19)" index="2230" value="1"/>
  <variable name="X(3,12,15)" index="2305" value="1"/>
  <variable name="X(3,15,71)" index="2440" value="1"/>
  <variable name="X(4,1,49)" index="2497" value="1"/>
  <variable name="X(4,2,1)" index="2528" value="1"/>
  <variable name="X(4,11,19)" index="2625" value="1"/>
  <variable name="X(4,12,7)" index="2692" value="1"/>
  <variable name="X(4,16,40)" index="2804" value="1"/>
  <variable name="X(5,12,27)" index="2870" value="1"/>
  <variable name="X(5,17,7)" index="2929" value="1"/>
  <variable name="X(6,12,36)" index="3037" value="1"/>
  <variable name="X(6,18,15)" index="3095" value="1"/>
  <variable name="X(7,12,40)" index="3199" value="1"/>
  <variable name="X(7,19,64)" index="3302" value="1"/>
  <variable name="X(8,12,45)" index="3362" value="1"/>
  <variable name="X(8,20,27)" index="3423" value="1"/>
  <variable name="X(9,12,48)" index="3523" value="1"/>
  <variable name="X(9,21,36)" index="3590" value="1"/>
  <variable name="X(10,11,49)" index="3682" value="1"/>
  <variable name="X(10,22,19)" index="3731" value="1"/>
  <variable name="X(11,4,49)" index="3840" value="1"/>
  <variable name="X(11,10,19)" index="3889" value="1"/>
  <variable name="X(11,12,64)" index="4013" value="1"/>
  <variable name="X(11,23,45)" index="4073" value="1"/>
  <variable name="X(12,3,71)" index="4178" value="1"/>
  <variable name="X(12,4,40)" index="4226" value="1"/>
  <variable name="X(12,5,7)" index="4272" value="1"/>
  <variable name="X(12,6,15)" index="4359" value="1"/>
  <variable name="X(12,7,64)" index="4487" value="1"/>
  <variable name="X(12,8,27)" index="4529" value="1"/>
  <variable name="X(12,9,36)" index="4617" value="1"/>
  <variable name="X(12,11,45)" index="4705" value="1"/>
  <variable name="X(12,24,48)" index="4787" value="1"/>
 </variables>
</CPLEXSolution>
